43148
79,80,82,81,90,91,89,86,84,85,87,92,93,94,88,157,162,161,160,158,159,156,102,117,163,168,167,116,115,114,101,98,97,96,100,95,50,48,49,47,45,44,43,42,41,103,46,106,105,104,107,108,109,110,111,99,112,113,119,121,122,125,126,132,133,134,136,186,175,187,190,188,189,177,176,173,171,135,170,169,164,165,166,172,174,178,180,181,179,182,183,195,196,202,201,200,199,198,194,193,191,192,197,151,150,149,147,148,152,153,155,154,146,18,11,19,21,20,12,10,17,9,7,6,8,4,5,2,1,3,16,14,13,15,30,51,69,70,73,72,71,54,55,52,31,32,33,26,27,28,22,23,24,25,144,145,185,184,141,140,143,139,138,142,137,29,127,37,128,129,131,130,39,123,124,120,118,38,40,36,35,34,53,56,57,58,59,60,61,62,63,64,65,66,67,68,74,75,76,77,78,83,79
